/* Objective function */
max: +4 C1 +6.5 C2 +5.9 C3 +5.4 C4 +5.15 C5 +10 C6 +8.4 C7 +6.25 C8;

/* Constraints */
+40 C1 +50 C2 +80 C3 +60 C4 +45 C5 +60 C6 +30 C7 +25 C8 <= 2500;
+40 C1 +50 C2 +80 C3 <= 1000;
+60 C4 +45 C5 +60 C6 <= 1000;
+30 C7 +25 C8 <= 1000;
R5: +40 C1 >= 100;
R6: +50 C2 >= 100;
R7: +80 C3 >= 100;
R8: +60 C4 >= 100;
R9: +45 C5 >= 100;
R10: +60 C6 >= 100;
R11: +30 C7 >= 100;
R12: +25 C8 >= 100;

/* Integer definitions */
int C1,C2,C3,C4,C5,C6,C7,C8;
